0
Node Left Objective IInf Best_Integer Best_Bound ItCnt Gap
0 0 43.0201 6 43.0201 54
0 0 44.1279 8 Cuts:9 71
0 0 46.6938 8 Cuts:20 87
0+ 0 nan nan 56.4455 46.6938 nan 17.28%
0 0 47.8254 8 56.4455 Cuts:17 105 15.27%
0 0 48.9377 7 56.4455 Cuts:19 121 13.30%
0 0 49.3871 8 56.4455 Cuts:13 139 12.50%
0+ 0 nan nan 52.9813 49.3871 nan 6.78%
0+ 0 nan nan 52.9813 49.3871 nan 6.78%
0 0 49.3871 8 52.9813 49.3871 210 6.78%
0 0 49.6399 7 52.9813 Cuts:8 228 6.31%
0 0 49.7845 7 52.9813 Cuts:18 242 6.03%
0 0 49.7966 7 52.9813 LiftProj:3 244 6.01%
0 0 50.0939 7 52.9813 Cuts:7 258 5.45%
0 0 50.5023 7 52.9813 LiftProj:5 262 4.68%
0 0 50.9468 7 52.9813 LiftProj:5 276 3.84%
0 0 51.0975 7 52.9813 Cuts:6 282 3.56%
0 0 51.2700 6 52.9813 Cuts:8 292 3.23%
0 0 51.3921 6 52.9813 Cuts:5 299 3.00%
0 0 51.4150 6 52.9813 Cuts:7 306 2.96%
0 0 51.4191 7 52.9813 LiftProj:2 310 2.95%
0 0 51.4307 6 52.9813 LiftProj:2 316 2.93%
0 0 51.8702 7 52.9813 Cuts:8 327 2.10%
0 0 52.6022 2 52.9813 LiftProj:2 346 0.72%
0 0 integral 0 52.9813 52.6022 359 0.72%
0 0 52.9813 0 52.9813 52.9813 359 0.00%
CPXPARAM_MIP_Cuts_CPXPARAM_MIP_Cuts_Gomory-CPXPARAM_MIP_Cuts_Disjunctive-CPXPARAM_MIP_Cuts_LiftProj 8
1
CPXPARAM_MIP_Cuts_CPXPARAM_MIP_Cuts_Gomory-CPXPARAM_MIP_Cuts_Disjunctive-CPXPARAM_MIP_Cuts_LiftProj 0
2
CPXPARAM_MIP_Cuts_CPXPARAM_MIP_Cuts_Gomory-CPXPARAM_MIP_Cuts_Disjunctive-CPXPARAM_MIP_Cuts_LiftProj 0
3
Node Left Objective IInf Best_Integer Best_Bound ItCnt Gap
0 0 2.5600 6 2.5600 61
0 0 2.8244 6 Cuts:6 76
0 0 3.6302 6 Cuts:12 90
0+ 0 nan nan 11.3251 3.6302 nan 67.95%
0 0 4.0091 7 11.3251 Cuts:9 103 64.60%
0 0 4.7033 7 11.3251 Cuts:11 110 58.47%
0 0 5.2099 7 11.3251 Cuts:8 123 54.00%
0 0 5.2884 6 11.3251 LiftProj:1 129 53.30%
0 0 5.2906 6 11.3251 LiftProj:1 132 53.28%
0 0 5.3025 7 11.3251 LiftProj:1 135 53.18%
0 0 5.9030 7 11.3251 LiftProj:2 145 47.88%
0 0 5.9481 7 11.3251 LiftProj:3 147 47.48%
0 0 5.9694 7 11.3251 LiftProj:2 150 47.29%
0 0 5.9818 7 11.3251 LiftProj:3 152 47.18%
0 0 5.9929 6 11.3251 LiftProj:3 156 47.08%
0 0 6.0111 7 11.3251 LiftProj:3 159 46.92%
0 0 6.1557 7 11.3251 Cuts:5 171 45.64%
0 0 6.1701 7 11.3251 LiftProj:2 173 45.52%
0 0 6.2631 7 11.3251 LiftProj:3 179 44.70%
0 0 6.2986 7 11.3251 LiftProj:3 182 44.38%
0 0 6.3200 7 11.3251 LiftProj:3 184 44.19%
0 0 6.5059 7 11.3251 LiftProj:4 189 42.55%
0 0 6.5659 7 11.3251 LiftProj:3 195 42.02%
0 0 6.5912 7 11.3251 LiftProj:4 198 41.80%
0 0 6.6059 7 11.3251 LiftProj:2 201 41.67%
0 0 6.6518 7 11.3251 LiftProj:2 205 41.27%
0 0 6.7208 7 11.3251 LiftProj:2 209 40.66%
0 0 7.0471 7 11.3251 LiftProj:5 215 37.77%
0 0 7.0720 7 11.3251 LiftProj:3 218 37.55%
0 0 7.1713 7 11.3251 LiftProj:2 223 36.68%
0 0 7.2296 7 11.3251 LiftProj:5 228 36.16%
0 0 7.3033 7 11.3251 LiftProj:3 233 35.51%
0 0 7.3490 7 11.3251 LiftProj:3 236 35.11%
0 0 7.4339 7 11.3251 LiftProj:2 239 34.36%
0 0 7.4479 7 11.3251 LiftProj:1 242 34.24%
0 0 7.4933 7 11.3251 LiftProj:1 244 33.83%
0 0 7.5205 7 11.3251 LiftProj:4 249 33.59%
0 0 7.5333 7 11.3251 LiftProj:2 250 33.48%
0 0 7.8112 7 11.3251 LiftProj:3 257 31.03%
0 0 7.9107 7 11.3251 LiftProj:5 260 30.15%
0 0 7.9272 7 11.3251 LiftProj:3 262 30.00%
0 0 8.0072 7 11.3251 LiftProj:2 266 29.30%
0 0 8.0894 7 11.3251 LiftProj:7 272 28.57%
0 0 8.1109 7 11.3251 LiftProj:3 277 28.38%
0 0 8.1147 7 11.3251 LiftProj:3 280 28.35%
0 0 8.1267 7 11.3251 LiftProj:3 284 28.24%
0 0 8.1528 7 11.3251 LiftProj:3 287 28.01%
0 0 8.1549 7 11.3251 LiftProj:1 288 27.99%
0 0 8.1616 7 11.3251 LiftProj:2 289 27.93%
0 0 8.1650 7 11.3251 LiftProj:1 290 27.90%
0+ 0 nan nan 11.3251 8.1650 nan 27.90%
0 0 9.2749 1 11.3251 9.2749 339 18.10%
0 0 10.7664 1 11.3251 Cuts:19 351 4.93%
0 0 cutoff 11.3251 357 0.00% 0 0
CPXPARAM_MIP_Cuts_CPXPARAM_MIP_Cuts_Gomory-CPXPARAM_MIP_Cuts_Disjunctive-CPXPARAM_MIP_Cuts_LiftProj 6
4
CPXPARAM_MIP_Cuts_CPXPARAM_MIP_Cuts_Gomory-CPXPARAM_MIP_Cuts_Disjunctive-CPXPARAM_MIP_Cuts_LiftProj 0
5
CPXPARAM_MIP_Cuts_CPXPARAM_MIP_Cuts_Gomory-CPXPARAM_MIP_Cuts_Disjunctive-CPXPARAM_MIP_Cuts_LiftProj 0
6
Node Left Objective IInf Best_Integer Best_Bound ItCnt Gap
0 0 40.5363 2 40.5363 49
0+ 0 nan nan 40.6800 40.5363 nan 0.35%
0+ 0 nan nan 40.6800 40.5363 nan 0.35%
0 0 40.5363 2 40.6800 40.5363 104 0.35%
0 0 40.5363 2 40.6800 Fract:1 108 0.35%
0 0 40.5363 2 40.6800 Fract:1 110 0.35%
0 2 40.6078 2 40.6800 40.6081 110 0.18%
CPXPARAM_MIP_Cuts_CPXPARAM_MIP_Cuts_Gomory-CPXPARAM_MIP_Cuts_Disjunctive-CPXPARAM_MIP_Cuts_LiftProj 0
7
CPXPARAM_MIP_Cuts_CPXPARAM_MIP_Cuts_Gomory-CPXPARAM_MIP_Cuts_Disjunctive-CPXPARAM_MIP_Cuts_LiftProj 2
8
CPXPARAM_MIP_Cuts_CPXPARAM_MIP_Cuts_Gomory-CPXPARAM_MIP_Cuts_Disjunctive-CPXPARAM_MIP_Cuts_LiftProj 0
9
Node Left Objective IInf Best_Integer Best_Bound ItCnt Gap
0 0 6.4123 1 6.4123 41
0+ 0 nan nan 6.4123 6.4123 nan 0.00%
0 0 cutoff 6.4123 6.4123 41 0.00% 0
CPXPARAM_MIP_Cuts_CPXPARAM_MIP_Cuts_Gomory-CPXPARAM_MIP_Cuts_Disjunctive-CPXPARAM_MIP_Cuts_LiftProj 0
10
CPXPARAM_MIP_Cuts_CPXPARAM_MIP_Cuts_Gomory-CPXPARAM_MIP_Cuts_Disjunctive-CPXPARAM_MIP_Cuts_LiftProj 0
11
CPXPARAM_MIP_Cuts_CPXPARAM_MIP_Cuts_Gomory-CPXPARAM_MIP_Cuts_Disjunctive-CPXPARAM_MIP_Cuts_LiftProj 0
12
Node Left Objective IInf Best_Integer Best_Bound ItCnt Gap
0 0 50.7422 6 50.7422 57
0 0 50.8153 9 Cuts:6 71
0 0 51.5275 9 Cuts:11 84
0+ 0 nan nan 54.5576 51.5275 nan 5.55%
0+ 0 nan nan 54.5576 51.5275 nan 5.55%
0 0 51.5275 9 54.5576 51.5275 143 5.55%
0 0 51.8517 9 54.5576 Cuts:12 155 4.96%
0 0 51.9442 9 54.5576 Cuts:7 164 4.79%
0 0 51.9948 9 54.5576 Cuts:5 173 4.70%
0 0 52.2286 9 54.5576 Cuts:6 186 4.27%
0 0 52.3134 8 54.5576 LiftProj:4 194 4.11%
0 0 52.3244 9 54.5576 Cuts:5 198 4.09%
0 0 52.4569 8 54.5576 Cuts:4 203 3.85%
0 0 52.4916 8 54.5576 LiftProj:4 205 3.79%
0 0 52.5195 9 54.5576 LiftProj:3 208 3.74%
0 0 52.6300 9 54.5576 LiftProj:5 219 3.53%
0 0 52.6903 9 54.5576 LiftProj:2 224 3.42%
0 0 52.7571 9 54.5576 LiftProj:3 229 3.30%
0 0 52.8608 9 54.5576 LiftProj:3 236 3.11%
0 0 53.0495 8 54.5576 LiftProj:3 246 2.76%
0 0 53.0589 8 54.5576 LiftProj:2 249 2.75%
0 0 53.0953 8 54.5576 LiftProj:1 252 2.68%
0 0 53.1091 8 54.5576 LiftProj:3 258 2.66%
0 0 53.1888 8 54.5576 LiftProj:4 263 2.51%
0 0 53.2096 8 54.5576 Cuts:8 266 2.47%
0 0 53.2139 8 54.5576 LiftProj:3 269 2.46%
0 0 53.2453 8 54.5576 LiftProj:2 275 2.41%
0 0 53.3337 7 54.5576 LiftProj:4 282 2.24%
0 0 53.3454 8 54.5576 LiftProj:3 286 2.22%
0 0 cutoff 54.5576 53.3454 288 2.22% 0
CPXPARAM_MIP_Cuts_CPXPARAM_MIP_Cuts_Gomory-CPXPARAM_MIP_Cuts_Disjunctive-CPXPARAM_MIP_Cuts_LiftProj 15
13
CPXPARAM_MIP_Cuts_CPXPARAM_MIP_Cuts_Gomory-CPXPARAM_MIP_Cuts_Disjunctive-CPXPARAM_MIP_Cuts_LiftProj 0
14
CPXPARAM_MIP_Cuts_CPXPARAM_MIP_Cuts_Gomory-CPXPARAM_MIP_Cuts_Disjunctive-CPXPARAM_MIP_Cuts_LiftProj 0
15
Node Left Objective IInf Best_Integer Best_Bound ItCnt Gap
0 0 2.3864 6 2.3864 56
0 0 2.6966 8 Cuts:6 69
0 0 3.4209 8 Cuts:11 82
0+ 0 nan nan 13.6225 3.4209 nan 74.89%
0 0 4.9187 8 13.6225 Cuts:14 98 63.89%
0 0 5.3984 8 13.6225 Cuts:10 109 60.37%
0 0 6.0867 8 13.6225 Cuts:13 126 55.32%
0 0 6.0997 8 13.6225 LiftProj:2 130 55.22%
0 0 6.1287 8 13.6225 LiftProj:3 134 55.01%
0 0 6.2265 7 13.6225 LiftProj:2 137 54.29%
0 0 6.5499 7 13.6225 LiftProj:4 144 51.92%
0 0 7.1918 7 13.6225 Cuts:5 156 47.21%
0 0 7.4513 7 13.6225 LiftProj:2 168 45.30%
0 0 7.5120 7 13.6225 LiftProj:4 173 44.86%
0 0 7.5755 7 13.6225 LiftProj:3 179 44.39%
0 0 7.8150 7 13.6225 LiftProj:3 186 42.63%
0 0 8.3851 7 13.6225 LiftProj:3 195 38.45%
0 0 8.4126 7 13.6225 LiftProj:3 198 38.24%
0 0 8.4221 7 13.6225 LiftProj:2 201 38.18%
0 0 8.4592 7 13.6225 LiftProj:2 205 37.90%
0 0 8.5305 7 13.6225 LiftProj:4 213 37.38%
0 0 8.5936 7 13.6225 LiftProj:3 219 36.92%
0 0 8.5967 7 13.6225 LiftProj:3 223 36.89%
0 0 8.6386 7 13.6225 LiftProj:2 230 36.59%
0 0 8.6529 7 13.6225 LiftProj:1 233 36.48%
0 0 8.6570 7 13.6225 LiftProj:2 238 36.45%
0 0 8.6907 7 13.6225 LiftProj:3 241 36.20%
0 0 8.7000 7 13.6225 LiftProj:2 244 36.13%
0 0 8.7011 7 13.6225 LiftProj:2 246 36.13%
0 0 8.7141 7 13.6225 LiftProj:1 248 36.03%
0 0 8.7231 7 13.6225 LiftProj:5 251 35.97%
0 0 8.7287 7 13.6225 LiftProj:2 252 35.92%
0 0 8.7532 7 13.6225 LiftProj:4 256 35.74%
0 0 8.7539 7 13.6225 LiftProj:3 257 35.74%
0 2 9.1333 5 13.6225 9.2487 257 32.11%
CPXPARAM_MIP_Cuts_CPXPARAM_MIP_Cuts_Gomory-CPXPARAM_MIP_Cuts_Disjunctive-CPXPARAM_MIP_Cuts_LiftProj 15
16
CPXPARAM_MIP_Cuts_CPXPARAM_MIP_Cuts_Gomory-CPXPARAM_MIP_Cuts_Disjunctive-CPXPARAM_MIP_Cuts_LiftProj 0
17
CPXPARAM_MIP_Cuts_CPXPARAM_MIP_Cuts_Gomory-CPXPARAM_MIP_Cuts_Disjunctive-CPXPARAM_MIP_Cuts_LiftProj 1
18
Node Left Objective IInf Best_Integer Best_Bound ItCnt Gap
0+ 0 nan nan 698.6785 -80.3724 nan 111.50%
0 0 49.1770 2 698.6785 49.1770 57 92.96%
0 0 49.1770 2 698.6785 Disjcuts:1 61 92.96%
0 2 49.1770 2 698.6785 49.1770 64 92.96%
CPXPARAM_MIP_Cuts_CPXPARAM_MIP_Cuts_Gomory-CPXPARAM_MIP_Cuts_Disjunctive-CPXPARAM_MIP_Cuts_LiftProj 0
19
CPXPARAM_MIP_Cuts_CPXPARAM_MIP_Cuts_Gomory-CPXPARAM_MIP_Cuts_Disjunctive-CPXPARAM_MIP_Cuts_LiftProj 0
20
CPXPARAM_MIP_Cuts_CPXPARAM_MIP_Cuts_Gomory-CPXPARAM_MIP_Cuts_Disjunctive-CPXPARAM_MIP_Cuts_LiftProj 1
21
Node Left Objective IInf Best_Integer Best_Bound ItCnt Gap
0 0 7.4387 2 7.4387 48
0+ 0 nan nan 9.7351 7.4387 nan 23.59%
0 0 7.4387 2 9.7351 Cuts:2 52 23.59%
0+ 0 nan nan 9.7351 7.4387 nan 23.59%
0 0 7.4387 2 9.7351 7.4387 103 23.59%
0 0 7.4770 3 9.7351 Fract:2 107 23.19%
0 0 8.0520 4 9.7351 Cuts:4 114 17.29%
0 0 8.5349 3 9.7351 Fract:2 118 12.33%
0 0 8.7748 2 9.7351 Cuts:5 124 9.86%
0 0 9.5872 3 9.7351 Cuts:3 129 1.52%
0 0 cutoff 9.7351 139 0.00% 0 0
CPXPARAM_MIP_Cuts_CPXPARAM_MIP_Cuts_Gomory-CPXPARAM_MIP_Cuts_Disjunctive-CPXPARAM_MIP_Cuts_LiftProj 2
22
CPXPARAM_MIP_Cuts_CPXPARAM_MIP_Cuts_Gomory-CPXPARAM_MIP_Cuts_Disjunctive-CPXPARAM_MIP_Cuts_LiftProj 3
23
CPXPARAM_MIP_Cuts_CPXPARAM_MIP_Cuts_Gomory-CPXPARAM_MIP_Cuts_Disjunctive-CPXPARAM_MIP_Cuts_LiftProj 0
24
Node Left Objective IInf Best_Integer Best_Bound ItCnt Gap
0 0 65.7942 6 65.7942 62
0 0 65.8151 8 Cuts:10 76
0 0 65.8631 7 Cuts:17 88
0 0 65.8739 7 Cuts:9 92
0 0 66.0991 8 Cuts:12 106
0 0 66.4220 8 Cuts:14 119
0+ 0 nan nan 67.9165 66.4220 nan 2.20%
0+ 0 nan nan 67.9165 66.4220 nan 2.20%
0 0 66.4220 8 67.9165 66.4220 204 2.20%
0 0 66.4307 8 67.9165 LiftProj:2 207 2.19%
0 0 66.4530 7 67.9165 Cuts:13 216 2.15%
0 0 66.4658 8 67.9165 LiftProj:2 220 2.14%
0 0 66.4693 8 67.9165 LiftProj:3 223 2.13%
0 0 66.4738 8 67.9165 LiftProj:1 224 2.12%
0 0 66.5008 8 67.9165 LiftProj:2 230 2.08%
0 0 66.5034 8 67.9165 Cuts:8 234 2.08%
0 0 66.5167 8 67.9165 LiftProj:2 238 2.06%
0 0 66.8488 7 67.9165 LiftProj:3 248 1.57%
0 0 67.1021 4 67.9165 Fract:1 258 1.20%
0 0 67.2620 5 67.9165 LiftProj:3 264 0.96%
0 0 67.3626 3 67.9165 LiftProj:1 271 0.82%
0 0 67.8054 2 67.9165 LiftProj:1 277 0.16%
0+ 0 nan nan 67.9165 67.8054 nan 0.16%
0 0 cutoff 67.9165 278 0.00% 0 0
CPXPARAM_MIP_Cuts_CPXPARAM_MIP_Cuts_Gomory-CPXPARAM_MIP_Cuts_Disjunctive-CPXPARAM_MIP_Cuts_LiftProj 3
25
CPXPARAM_MIP_Cuts_CPXPARAM_MIP_Cuts_Gomory-CPXPARAM_MIP_Cuts_Disjunctive-CPXPARAM_MIP_Cuts_LiftProj 0
26
CPXPARAM_MIP_Cuts_CPXPARAM_MIP_Cuts_Gomory-CPXPARAM_MIP_Cuts_Disjunctive-CPXPARAM_MIP_Cuts_LiftProj 0
27
Node Left Objective IInf Best_Integer Best_Bound ItCnt Gap
0 0 11.8594 6 11.8594 54
0 0 13.4298 8 Cuts:13 69
0 0 14.4474 9 Cuts:17 83
0 0 15.0224 9 Cuts:22 96
0 0 15.4069 9 Cuts:16 112
0 0 15.8942 9 Cuts:17 129
0 0 16.0605 9 LiftProj:8 140
0 0 16.1438 9 LiftProj:7 148
0 0 16.1758 9 Cuts:10 158
0 0 16.2653 9 LiftProj:6 173
0 0 16.3911 9 LiftProj:8 179
0 0 16.4131 9 Cuts:9 183
0 0 16.4690 9 LiftProj:6 189
0 0 16.5289 9 LiftProj:6 199
0 0 16.6022 9 LiftProj:4 208
0 0 16.6080 9 LiftProj:3 210
0 0 16.6107 9 LiftProj:2 211
0 0 16.6118 9 LiftProj:2 214
0 2 16.6118 9 16.6616 214 0 0
CPXPARAM_MIP_Cuts_CPXPARAM_MIP_Cuts_Gomory-CPXPARAM_MIP_Cuts_Disjunctive-CPXPARAM_MIP_Cuts_LiftProj 13
28
CPXPARAM_MIP_Cuts_CPXPARAM_MIP_Cuts_Gomory-CPXPARAM_MIP_Cuts_Disjunctive-CPXPARAM_MIP_Cuts_LiftProj 0
29
CPXPARAM_MIP_Cuts_CPXPARAM_MIP_Cuts_Gomory-CPXPARAM_MIP_Cuts_Disjunctive-CPXPARAM_MIP_Cuts_LiftProj 1
30
Node Left Objective IInf Best_Integer Best_Bound ItCnt Gap
0 0 60.5073 2 60.5073 52
0+ 0 nan nan 60.5115 60.5073 nan 0.01%
CPXPARAM_MIP_Cuts_CPXPARAM_MIP_Cuts_Gomory-CPXPARAM_MIP_Cuts_Disjunctive-CPXPARAM_MIP_Cuts_LiftProj 0
31
CPXPARAM_MIP_Cuts_CPXPARAM_MIP_Cuts_Gomory-CPXPARAM_MIP_Cuts_Disjunctive-CPXPARAM_MIP_Cuts_LiftProj 0
32
CPXPARAM_MIP_Cuts_CPXPARAM_MIP_Cuts_Gomory-CPXPARAM_MIP_Cuts_Disjunctive-CPXPARAM_MIP_Cuts_LiftProj 0
33
Node Left Objective IInf Best_Integer Best_Bound ItCnt Gap
0 0 16.6537 2 16.6537 50
0+ 0 nan nan 16.6575 16.6537 nan 0.02%
0+ 0 nan nan 16.6575 16.6537 nan 0.02%
0 0 16.6537 2 16.6575 16.6537 111 0.02%
0 0 16.6537 2 16.6575 Disjcuts:1 115 0.02%
0 0 cutoff 16.6575 16.6537 117 0.02% 0
CPXPARAM_MIP_Cuts_CPXPARAM_MIP_Cuts_Gomory-CPXPARAM_MIP_Cuts_Disjunctive-CPXPARAM_MIP_Cuts_LiftProj 0
34
CPXPARAM_MIP_Cuts_CPXPARAM_MIP_Cuts_Gomory-CPXPARAM_MIP_Cuts_Disjunctive-CPXPARAM_MIP_Cuts_LiftProj 0
35
CPXPARAM_MIP_Cuts_CPXPARAM_MIP_Cuts_Gomory-CPXPARAM_MIP_Cuts_Disjunctive-CPXPARAM_MIP_Cuts_LiftProj 1
36
Node Left Objective IInf Best_Integer Best_Bound ItCnt Gap
0 0 44.2061 6 44.2061 61
0 0 45.3583 9 Cuts:14 78
0 0 46.8925 9 Cuts:20 93
0 0 48.3479 9 Cuts:21 111
0 0 49.0423 9 Cuts:11 128
0 0 49.7474 9 Cuts:14 145
0 0 49.8666 9 Cuts:9 153
0 0 49.8745 9 Cuts:6 157
0 0 49.8930 9 LiftProj:6 167
0 0 49.9067 9 LiftProj:5 170
0 0 49.9801 9 LiftProj:6 182
0 0 50.0186 9 LiftProj:5 188
0 0 50.0263 9 LiftProj:7 192
0 0 50.0757 9 LiftProj:4 200
0 0 50.0886 9 LiftProj:6 202
0 0 50.0966 9 LiftProj:4 204
0 0 50.1004 9 LiftProj:5 208
0 0 50.1193 9 LiftProj:8 211
0 0 50.1866 8 LiftProj:6 223
0 0 50.1902 9 LiftProj:4 225
0+ 0 nan nan 68.2805 50.1902 nan 26.49%
0 2 50.2529 8 68.2805 50.6048 225 25.89%
CPXPARAM_MIP_Cuts_CPXPARAM_MIP_Cuts_Gomory-CPXPARAM_MIP_Cuts_Disjunctive-CPXPARAM_MIP_Cuts_LiftProj 13
37
CPXPARAM_MIP_Cuts_CPXPARAM_MIP_Cuts_Gomory-CPXPARAM_MIP_Cuts_Disjunctive-CPXPARAM_MIP_Cuts_LiftProj 0
38
CPXPARAM_MIP_Cuts_CPXPARAM_MIP_Cuts_Gomory-CPXPARAM_MIP_Cuts_Disjunctive-CPXPARAM_MIP_Cuts_LiftProj 3
39
Node Left Objective IInf Best_Integer Best_Bound ItCnt Gap
0 0 10.2945 6 10.2945 57
0+ 0 nan nan 16.4316 10.2945 nan 37.35%
0 0 10.3786 7 16.4316 Cuts:6 70 36.84%
0 0 10.7261 8 16.4316 Cuts:12 77 34.72%
0 0 11.3699 8 16.4316 Cuts:14 90 30.80%
0 0 11.9001 8 16.4316 Cuts:14 107 27.58%
0 0 12.0893 7 16.4316 Cuts:12 120 26.43%
0 0 12.1009 8 16.4316 LiftProj:4 122 26.36%
0 0 12.1949 8 16.4316 LiftProj:3 131 25.78%
0 0 12.2846 7 16.4316 LiftProj:4 143 25.24%
0 0 12.2949 8 16.4316 LiftProj:3 144 25.18%
0 0 12.3689 7 16.4316 LiftProj:4 151 24.72%
0 0 12.4434 8 16.4316 LiftProj:5 155 24.27%
0 0 12.4657 8 16.4316 LiftProj:5 156 24.14%
0 0 12.5140 8 16.4316 LiftProj:4 161 23.84%
0 0 12.5612 8 16.4316 LiftProj:4 169 23.55%
0 0 12.6434 8 16.4316 LiftProj:4 178 23.05%
0 0 12.6623 8 16.4316 LiftProj:5 180 22.94%
0 0 12.8429 8 16.4316 LiftProj:5 187 21.84%
0 0 12.8471 8 16.4316 LiftProj:3 189 21.81%
0 0 12.8827 8 16.4316 LiftProj:3 194 21.60%
0 0 12.9227 8 16.4316 LiftProj:1 199 21.35%
0 0 12.9259 8 16.4316 LiftProj:1 200 21.33%
0 0 12.9427 8 16.4316 LiftProj:1 204 21.23%
0 2 12.9567 7 16.4316 12.9737 204 21.04%
CPXPARAM_MIP_Cuts_CPXPARAM_MIP_Cuts_Gomory-CPXPARAM_MIP_Cuts_Disjunctive-CPXPARAM_MIP_Cuts_LiftProj 13
40
CPXPARAM_MIP_Cuts_CPXPARAM_MIP_Cuts_Gomory-CPXPARAM_MIP_Cuts_Disjunctive-CPXPARAM_MIP_Cuts_LiftProj 0
41
CPXPARAM_MIP_Cuts_CPXPARAM_MIP_Cuts_Gomory-CPXPARAM_MIP_Cuts_Disjunctive-CPXPARAM_MIP_Cuts_LiftProj 1
42
Node Left Objective IInf Best_Integer Best_Bound ItCnt Gap
0 0 46.5469 2 46.5469 53
0+ 0 nan nan 47.4290 46.5469 nan 1.86%
0 0 46.5469 2 47.4290 Disjcuts:1 57 1.86%
0+ 0 nan nan 47.4290 46.5469 nan 1.86%
0 0 46.5469 2 47.4290 46.5469 111 1.86%
0 0 cutoff 47.4290 119 0.00% 0 0
CPXPARAM_MIP_Cuts_CPXPARAM_MIP_Cuts_Gomory-CPXPARAM_MIP_Cuts_Disjunctive-CPXPARAM_MIP_Cuts_LiftProj 0
43
CPXPARAM_MIP_Cuts_CPXPARAM_MIP_Cuts_Gomory-CPXPARAM_MIP_Cuts_Disjunctive-CPXPARAM_MIP_Cuts_LiftProj 0
44
CPXPARAM_MIP_Cuts_CPXPARAM_MIP_Cuts_Gomory-CPXPARAM_MIP_Cuts_Disjunctive-CPXPARAM_MIP_Cuts_LiftProj 1
45
Node Left Objective IInf Best_Integer Best_Bound ItCnt Gap
0+ 0 nan nan 754.6210 -94.3684 nan 112.51%
0 0 10.7585 2 754.6210 10.7585 50 98.57%
0 0 10.7585 2 754.6210 Cuts:2 54 98.57%
0 0 10.7585 2 754.6210 Disjcuts:1 57 98.57%
0 2 10.7585 2 754.6210 10.7585 57 98.57%
CPXPARAM_MIP_Cuts_CPXPARAM_MIP_Cuts_Gomory-CPXPARAM_MIP_Cuts_Disjunctive-CPXPARAM_MIP_Cuts_LiftProj 0
46
CPXPARAM_MIP_Cuts_CPXPARAM_MIP_Cuts_Gomory-CPXPARAM_MIP_Cuts_Disjunctive-CPXPARAM_MIP_Cuts_LiftProj 1
47
CPXPARAM_MIP_Cuts_CPXPARAM_MIP_Cuts_Gomory-CPXPARAM_MIP_Cuts_Disjunctive-CPXPARAM_MIP_Cuts_LiftProj 2
48
Node Left Objective IInf Best_Integer Best_Bound ItCnt Gap
0 0 58.8715 6 58.8715 57
0 0 59.6641 7 Cuts:6 72
0 0 60.7947 6 Cuts:8 83
0+ 0 nan nan 61.8856 60.7947 nan 1.76%
0+ 0 nan nan 61.8856 60.7947 nan 1.76%
0 0 60.7952 4 61.8856 60.7952 147 1.76%
0 0 60.9634 4 61.8856 Cuts:4 151 1.49%
0 0 61.0198 5 61.8856 Cuts:4 158 1.40%
0 0 61.0769 5 61.8856 Cuts:7 167 1.31%
0 0 61.0968 5 61.8856 LiftProj:2 171 1.27%
0 0 61.1318 5 61.8856 LiftProj:2 172 1.22%
0 0 61.1330 5 61.8856 Cuts:3 174 1.22%
0 0 integral 0 61.8856 61.1330 187 1.22%
0 0 61.8856 0 61.8856 61.8856 187 0.00%
CPXPARAM_MIP_Cuts_CPXPARAM_MIP_Cuts_Gomory-CPXPARAM_MIP_Cuts_Disjunctive-CPXPARAM_MIP_Cuts_LiftProj 4
49
CPXPARAM_MIP_Cuts_CPXPARAM_MIP_Cuts_Gomory-CPXPARAM_MIP_Cuts_Disjunctive-CPXPARAM_MIP_Cuts_LiftProj 1
50
CPXPARAM_MIP_Cuts_CPXPARAM_MIP_Cuts_Gomory-CPXPARAM_MIP_Cuts_Disjunctive-CPXPARAM_MIP_Cuts_LiftProj 2
51
Node Left Objective IInf Best_Integer Best_Bound ItCnt Gap
0 0 10.2675 6 10.2675 65
0 0 10.4496 8 Cuts:11 78
0 0 11.6677 8 Cuts:14 97
0+ 0 nan nan 21.7788 11.6677 nan 46.43%
0 0 12.4281 9 21.7788 Cuts:17 107 42.93%
0 0 12.6765 9 21.7788 Cuts:10 120 41.79%
0 0 12.8313 9 21.7788 Cuts:15 129 41.08%
0 0 12.9392 9 21.7788 Cuts:8 138 40.59%
0 0 12.9907 8 21.7788 LiftProj:2 140 40.35%
0 0 13.0111 8 21.7788 LiftProj:2 144 40.26%
0 0 13.0165 8 21.7788 LiftProj:2 147 40.23%
0 0 13.0330 8 21.7788 LiftProj:2 150 40.16%
0 0 13.0366 8 21.7788 LiftProj:2 152 40.14%
0 0 13.0467 8 21.7788 LiftProj:1 155 40.09%
0 0 13.0514 8 21.7788 LiftProj:1 157 40.07%
0 0 13.3019 8 21.7788 LiftProj:2 171 38.92%
0 0 13.3049 8 21.7788 LiftProj:2 173 38.91%
0 0 13.3217 8 21.7788 LiftProj:2 177 38.83%
0 0 13.3504 8 21.7788 LiftProj:1 182 38.70%
0 0 13.3633 8 21.7788 LiftProj:1 184 38.64%
0 2 13.4275 7 21.7788 13.4386 184 38.29%
CPXPARAM_MIP_Cuts_CPXPARAM_MIP_Cuts_Gomory-CPXPARAM_MIP_Cuts_Disjunctive-CPXPARAM_MIP_Cuts_LiftProj 9
52
CPXPARAM_MIP_Cuts_CPXPARAM_MIP_Cuts_Gomory-CPXPARAM_MIP_Cuts_Disjunctive-CPXPARAM_MIP_Cuts_LiftProj 1
53
CPXPARAM_MIP_Cuts_CPXPARAM_MIP_Cuts_Gomory-CPXPARAM_MIP_Cuts_Disjunctive-CPXPARAM_MIP_Cuts_LiftProj 2
54
Node Left Objective IInf Best_Integer Best_Bound ItCnt Gap
0+ 0 nan nan 850.5680 -92.8051 nan 110.91%
0 0 58.3813 2 850.5680 58.3813 51 93.14%
0 0 58.3813 2 850.5680 Cuts:5 55 93.14%
0+ 0 nan nan 58.4112 58.3813 nan 0.05%
0+ 0 nan nan 58.4112 58.3813 nan 0.05%
0 0 58.3813 2 58.4112 58.3813 111 0.05%
0 0 cutoff 58.4112 58.3813 118 0.05% 0
CPXPARAM_MIP_Cuts_CPXPARAM_MIP_Cuts_Gomory-CPXPARAM_MIP_Cuts_Disjunctive-CPXPARAM_MIP_Cuts_LiftProj 1
55
CPXPARAM_MIP_Cuts_CPXPARAM_MIP_Cuts_Gomory-CPXPARAM_MIP_Cuts_Disjunctive-CPXPARAM_MIP_Cuts_LiftProj 2
56
CPXPARAM_MIP_Cuts_CPXPARAM_MIP_Cuts_Gomory-CPXPARAM_MIP_Cuts_Disjunctive-CPXPARAM_MIP_Cuts_LiftProj 2
57
Node Left Objective IInf Best_Integer Best_Bound ItCnt Gap
0+ 0 nan nan 682.2187 -97.6235 nan 114.31%
0 0 15.5882 2 682.2187 15.5882 47 97.72%
0 0 15.5882 2 682.2187 Disjcuts:1 51 97.72%
0+ 0 nan nan 15.7874 15.5882 nan 1.26%
0 0 15.5882 2 15.7874 Cuts:2 54 1.26%
0+ 0 nan nan 15.7874 15.5882 nan 1.26%
0 0 15.5882 2 15.7874 15.5882 96 1.26%
0 0 15.5882 2 15.7874 Cuts:3 100 1.26%
0 0 15.5882 2 15.7874 Fract:1 102 1.26%
0 2 15.6371 5 15.7874 15.6423 102 0.92%
CPXPARAM_MIP_Cuts_CPXPARAM_MIP_Cuts_Gomory-CPXPARAM_MIP_Cuts_Disjunctive-CPXPARAM_MIP_Cuts_LiftProj 1
58
CPXPARAM_MIP_Cuts_CPXPARAM_MIP_Cuts_Gomory-CPXPARAM_MIP_Cuts_Disjunctive-CPXPARAM_MIP_Cuts_LiftProj 4
59
CPXPARAM_MIP_Cuts_CPXPARAM_MIP_Cuts_Gomory-CPXPARAM_MIP_Cuts_Disjunctive-CPXPARAM_MIP_Cuts_LiftProj 2
60
Node Left Objective IInf Best_Integer Best_Bound ItCnt Gap
0 0 31.6179 6 31.6179 61
0 0 31.6334 7 Cuts:6 71
0 0 integral 0 34.4860 34.4860 92 0.00%
CPXPARAM_MIP_Cuts_CPXPARAM_MIP_Cuts_Gomory-CPXPARAM_MIP_Cuts_Disjunctive-CPXPARAM_MIP_Cuts_LiftProj 0
61
CPXPARAM_MIP_Cuts_CPXPARAM_MIP_Cuts_Gomory-CPXPARAM_MIP_Cuts_Disjunctive-CPXPARAM_MIP_Cuts_LiftProj 0
62
CPXPARAM_MIP_Cuts_CPXPARAM_MIP_Cuts_Gomory-CPXPARAM_MIP_Cuts_Disjunctive-CPXPARAM_MIP_Cuts_LiftProj 0
63
Node Left Objective IInf Best_Integer Best_Bound ItCnt Gap
0 0 5.4416 6 5.4416 61
0 0 5.6164 8 Cuts:10 81
0 0 7.0166 7 Cuts:7 100
0+ 0 nan nan 9.1778 7.0166 nan 23.55%
0 0 7.1688 7 9.1778 Cuts:14 111 21.89%
0 0 8.0263 6 9.1778 Cuts:11 132 12.55%
0+ 0 nan nan 9.1778 8.0263 nan 12.55%
0 0 8.5799 3 9.1778 8.5799 186 6.52%
0 0 8.7648 1 9.1778 Fract:1 190 4.50%
0 0 cutoff 9.1778 194 0.00% 0 0
CPXPARAM_MIP_Cuts_CPXPARAM_MIP_Cuts_Gomory-CPXPARAM_MIP_Cuts_Disjunctive-CPXPARAM_MIP_Cuts_LiftProj 0
64
CPXPARAM_MIP_Cuts_CPXPARAM_MIP_Cuts_Gomory-CPXPARAM_MIP_Cuts_Disjunctive-CPXPARAM_MIP_Cuts_LiftProj 1
65
CPXPARAM_MIP_Cuts_CPXPARAM_MIP_Cuts_Gomory-CPXPARAM_MIP_Cuts_Disjunctive-CPXPARAM_MIP_Cuts_LiftProj 1
66
Node Left Objective IInf Best_Integer Best_Bound ItCnt Gap
0 0 28.4414 2 28.4414 42
0+ 0 nan nan 28.5540 28.4414 nan 0.39%
0 0 28.4414 2 28.5540 Cuts:2 46 0.39%
0+ 0 nan nan 28.5540 28.4414 nan 0.39%
0 0 28.4414 2 28.5540 28.4414 92 0.39%
0 0 28.4414 2 28.5540 Cuts:3 96 0.39%
0 0 28.4414 2 28.5540 Cuts:3 98 0.39%
0 2 28.4931 4 28.5540 28.5064 98 0.17%
CPXPARAM_MIP_Cuts_CPXPARAM_MIP_Cuts_Gomory-CPXPARAM_MIP_Cuts_Disjunctive-CPXPARAM_MIP_Cuts_LiftProj 2
67
CPXPARAM_MIP_Cuts_CPXPARAM_MIP_Cuts_Gomory-CPXPARAM_MIP_Cuts_Disjunctive-CPXPARAM_MIP_Cuts_LiftProj 5
68
CPXPARAM_MIP_Cuts_CPXPARAM_MIP_Cuts_Gomory-CPXPARAM_MIP_Cuts_Disjunctive-CPXPARAM_MIP_Cuts_LiftProj 1
69
Node Left Objective IInf Best_Integer Best_Bound ItCnt Gap
0 0 3.9556 2 3.9556 52
0+ 0 nan nan 4.0841 3.9556 nan 3.15%
0+ 0 nan nan 4.0841 3.9556 nan 3.15%
0 0 3.9556 2 4.0841 3.9556 109 3.15%
0 0 3.9556 2 4.0841 Cuts:3 113 3.15%
0 1 4.0168 2 4.0841 4.0336 115 1.23%
CPXPARAM_MIP_Cuts_CPXPARAM_MIP_Cuts_Gomory-CPXPARAM_MIP_Cuts_Disjunctive-CPXPARAM_MIP_Cuts_LiftProj 1
70
CPXPARAM_MIP_Cuts_CPXPARAM_MIP_Cuts_Gomory-CPXPARAM_MIP_Cuts_Disjunctive-CPXPARAM_MIP_Cuts_LiftProj 2
71
CPXPARAM_MIP_Cuts_CPXPARAM_MIP_Cuts_Gomory-CPXPARAM_MIP_Cuts_Disjunctive-CPXPARAM_MIP_Cuts_LiftProj 0
72
Node Left Objective IInf Best_Integer Best_Bound ItCnt Gap
0 0 34.8025 6 34.8025 60
0+ 0 nan nan 38.6713 34.8025 nan 10.00%
0 0 34.9677 9 38.6713 Cuts:6 76 9.58%
0 0 35.8238 8 38.6713 Cuts:9 89 7.36%
0+ 0 nan nan 38.6713 35.8238 nan 7.36%
0 0 35.8238 8 38.6713 35.8238 158 7.36%
0 0 36.0991 8 38.6713 Fract:7 171 6.65%
0 0 36.2868 8 38.6713 Cuts:7 186 6.17%
0 0 36.5773 7 38.6713 Cuts:10 200 5.41%
0 0 36.6706 8 38.6713 LiftProj:5 208 5.17%
0 0 36.7137 8 38.6713 LiftProj:6 217 5.06%
0 0 36.7197 8 38.6713 LiftProj:2 221 5.05%
0 0 36.7335 8 38.6713 Cuts:6 225 5.01%
0 0 36.7501 8 38.6713 LiftProj:2 231 4.97%
0 0 36.8389 8 38.6713 LiftProj:7 239 4.74%
0 0 36.9031 8 38.6713 LiftProj:5 247 4.57%
0 0 37.2679 8 38.6713 LiftProj:3 257 3.63%
0 0 37.3490 8 38.6713 Cuts:10 261 3.42%
0 0 37.4855 8 38.6713 LiftProj:6 267 3.07%
0 0 37.8025 8 38.6713 LiftProj:6 275 2.25%
0 0 37.9136 7 38.6713 LiftProj:4 284 1.96%
0+ 0 nan nan 38.6713 37.9136 nan 1.96%
0 0 cutoff 38.6713 38.4358 305 0.61% 0
CPXPARAM_MIP_Cuts_CPXPARAM_MIP_Cuts_Gomory-CPXPARAM_MIP_Cuts_Disjunctive-CPXPARAM_MIP_Cuts_LiftProj 8
73
CPXPARAM_MIP_Cuts_CPXPARAM_MIP_Cuts_Gomory-CPXPARAM_MIP_Cuts_Disjunctive-CPXPARAM_MIP_Cuts_LiftProj 0
74
CPXPARAM_MIP_Cuts_CPXPARAM_MIP_Cuts_Gomory-CPXPARAM_MIP_Cuts_Disjunctive-CPXPARAM_MIP_Cuts_LiftProj 0
75
Node Left Objective IInf Best_Integer Best_Bound ItCnt Gap
0 0 0.4196 6 0.4196 63
0 0 0.6887 7 Cuts:7 81
0 0 1.7246 6 Cuts:8 106
0 0 integral 0 7.4242 7.4242 138 0.00%
CPXPARAM_MIP_Cuts_CPXPARAM_MIP_Cuts_Gomory-CPXPARAM_MIP_Cuts_Disjunctive-CPXPARAM_MIP_Cuts_LiftProj 0
76
CPXPARAM_MIP_Cuts_CPXPARAM_MIP_Cuts_Gomory-CPXPARAM_MIP_Cuts_Disjunctive-CPXPARAM_MIP_Cuts_LiftProj 0
77
CPXPARAM_MIP_Cuts_CPXPARAM_MIP_Cuts_Gomory-CPXPARAM_MIP_Cuts_Disjunctive-CPXPARAM_MIP_Cuts_LiftProj 0
78
Node Left Objective IInf Best_Integer Best_Bound ItCnt Gap
0 0 integral 0 36.9182 36.9182 54 0.00%
CPXPARAM_MIP_Cuts_CPXPARAM_MIP_Cuts_Gomory-CPXPARAM_MIP_Cuts_Disjunctive-CPXPARAM_MIP_Cuts_LiftProj 0
79
CPXPARAM_MIP_Cuts_CPXPARAM_MIP_Cuts_Gomory-CPXPARAM_MIP_Cuts_Disjunctive-CPXPARAM_MIP_Cuts_LiftProj 0
80
CPXPARAM_MIP_Cuts_CPXPARAM_MIP_Cuts_Gomory-CPXPARAM_MIP_Cuts_Disjunctive-CPXPARAM_MIP_Cuts_LiftProj 0
81
Node Left Objective IInf Best_Integer Best_Bound ItCnt Gap
0 0 4.5323 2 4.5323 44
0+ 0 nan nan 4.5514 4.5323 nan 0.42%
0 0 4.5323 2 4.5514 Disjcuts:1 48 0.42%
0+ 0 nan nan 4.5514 4.5323 nan 0.42%
0 0 4.5323 2 4.5514 4.5323 101 0.42%
0 0 4.5323 2 4.5514 Fract:1 105 0.42%
0 1 4.5505 2 4.5514 4.5506 107 0.02%
CPXPARAM_MIP_Cuts_CPXPARAM_MIP_Cuts_Gomory-CPXPARAM_MIP_Cuts_Disjunctive-CPXPARAM_MIP_Cuts_LiftProj 0
82
CPXPARAM_MIP_Cuts_CPXPARAM_MIP_Cuts_Gomory-CPXPARAM_MIP_Cuts_Disjunctive-CPXPARAM_MIP_Cuts_LiftProj 1
83
CPXPARAM_MIP_Cuts_CPXPARAM_MIP_Cuts_Gomory-CPXPARAM_MIP_Cuts_Disjunctive-CPXPARAM_MIP_Cuts_LiftProj 1
84
Node Left Objective IInf Best_Integer Best_Bound ItCnt Gap
0 0 63.6500 6 63.6500 54
0 0 64.7973 8 Cuts:9 71
0 0 68.1201 7 Cuts:10 83
0 0 70.7648 7 Cuts:13 102
0 0 71.6358 7 Cuts:9 116
0 0 72.0400 7 Cuts:17 128
0 0 72.0671 7 LiftProj:3 134
0 0 72.1353 7 LiftProj:2 140
0+ 0 nan nan 74.1734 72.1353 nan 2.75%
0+ 0 nan nan 74.1734 72.1353 nan 2.75%
0 0 72.1353 7 74.1734 72.1353 216 2.75%
0 0 72.1594 7 74.1734 LiftProj:2 218 2.72%
0 0 72.1708 7 74.1734 LiftProj:1 220 2.70%
0 0 72.2445 7 74.1734 LiftProj:1 226 2.60%
0 0 72.2516 7 74.1734 LiftProj:3 230 2.59%
0+ 0 nan nan 74.1734 72.2516 nan 2.59%
0 0 72.2561 7 74.1734 LiftProj:2 234 2.58%
0 0 72.2646 7 74.1734 LiftProj:2 238 2.57%
0 0 72.2707 7 74.1734 LiftProj:1 243 2.57%
0 0 cutoff 74.1734 72.2707 243 2.57% 0
CPXPARAM_MIP_Cuts_CPXPARAM_MIP_Cuts_Gomory-CPXPARAM_MIP_Cuts_Disjunctive-CPXPARAM_MIP_Cuts_LiftProj 6
85
CPXPARAM_MIP_Cuts_CPXPARAM_MIP_Cuts_Gomory-CPXPARAM_MIP_Cuts_Disjunctive-CPXPARAM_MIP_Cuts_LiftProj 1
86
CPXPARAM_MIP_Cuts_CPXPARAM_MIP_Cuts_Gomory-CPXPARAM_MIP_Cuts_Disjunctive-CPXPARAM_MIP_Cuts_LiftProj 2
87
Node Left Objective IInf Best_Integer Best_Bound ItCnt Gap
0+ 0 nan nan 994.8986 -114.3356 nan 111.49%
0+ 0 nan nan 37.2949 -114.3356 nan 406.57%
0 0 6.3884 6 37.2949 6.3884 54 82.87%
0 0 6.8409 9 37.2949 Cuts:6 69 81.66%
0 0 7.6708 9 37.2949 Cuts:11 80 79.43%
0 0 7.9782 9 37.2949 Cuts:12 93 78.61%
0 0 8.2293 8 37.2949 Cuts:6 107 77.93%
0 0 8.3074 9 37.2949 Cuts:7 115 77.73%
0 0 8.3221 9 37.2949 LiftProj:6 121 77.69%
0 0 8.5311 9 37.2949 LiftProj:8 137 77.13%
0 0 9.1645 9 37.2949 Cuts:11 149 75.43%
0 0 9.1958 9 37.2949 LiftProj:3 151 75.34%
0 0 9.2223 9 37.2949 LiftProj:2 152 75.27%
0 0 9.3504 9 37.2949 LiftProj:1 155 74.93%
0 0 9.3832 9 37.2949 LiftProj:3 156 74.84%
0 0 9.5631 9 37.2949 LiftProj:3 164 74.36%
0 0 9.7259 9 37.2949 LiftProj:6 169 73.92%
0 0 9.8666 8 37.2949 Cuts:5 175 73.54%
0 0 10.0183 9 37.2949 LiftProj:5 183 73.14%
0 0 10.1109 9 37.2949 LiftProj:6 187 72.89%
0 0 10.4753 9 37.2949 LiftProj:7 193 71.91%
0 0 10.6643 9 37.2949 Cuts:8 197 71.41%
0 0 10.9372 9 37.2949 LiftProj:8 205 70.67%
0+ 0 nan nan 16.1240 10.9372 nan 32.17%
0+ 0 nan nan 16.1240 10.9372 nan 32.17%
0 0 10.9372 9 16.1240 10.9372 298 32.17%
0 0 10.9816 8 16.1240 LiftProj:3 303 31.89%
0 0 10.9942 9 16.1240 LiftProj:5 304 31.81%
0 0 11.1713 9 16.1240 LiftProj:4 313 30.72%
0 0 11.4938 9 16.1240 Cuts:8 322 28.72%
0 0 11.6793 8 16.1240 Cuts:13 329 27.57%
0 0 11.8600 9 16.1240 Cuts:9 338 26.44%
0 0 12.0672 9 16.1240 Cuts:11 347 25.16%
0 0 12.2047 9 16.1240 Cuts:13 354 24.31%
0 0 12.2838 7 16.1240 LiftProj:10 370 23.82%
0 0 12.2998 8 16.1240 LiftProj:5 378 23.72%
0 0 12.3322 9 16.1240 Cuts:7 387 23.52%
0 0 12.3978 8 16.1240 LiftProj:4 393 23.11%
0 0 12.4173 9 16.1240 LiftProj:9 396 22.99%
0 0 12.4634 8 16.1240 LiftProj:5 400 22.70%
0 0 12.4871 9 16.1240 LiftProj:4 407 22.56%
0 0 12.5303 9 16.1240 Cuts:13 412 22.29%
0 0 12.5342 9 16.1240 LiftProj:2 413 22.26%
0 0 12.5419 9 16.1240 LiftProj:4 418 22.22%
0 0 12.5845 9 16.1240 Cuts:19 424 21.95%
0 0 12.6077 9 16.1240 LiftProj:4 428 21.81%
0 0 12.6104 9 16.1240 LiftProj:3 431 21.79%
0 0 12.6131 9 16.1240 LiftProj:3 432 21.77%
0 2 13.6749 4 16.1240 13.7424 432 14.77%
CPXPARAM_MIP_Cuts_CPXPARAM_MIP_Cuts_Gomory-CPXPARAM_MIP_Cuts_Disjunctive-CPXPARAM_MIP_Cuts_LiftProj 17
88
CPXPARAM_MIP_Cuts_CPXPARAM_MIP_Cuts_Gomory-CPXPARAM_MIP_Cuts_Disjunctive-CPXPARAM_MIP_Cuts_LiftProj 3
89
CPXPARAM_MIP_Cuts_CPXPARAM_MIP_Cuts_Gomory-CPXPARAM_MIP_Cuts_Disjunctive-CPXPARAM_MIP_Cuts_LiftProj 0
90
Node Left Objective IInf Best_Integer Best_Bound ItCnt Gap
0+ 0 nan nan 514.4143 -106.7235 nan 120.75%
0+ 0 nan nan 83.5731 -106.7235 nan 227.70%
0 0 69.0899 2 83.5731 69.0899 47 17.33%
0 0 69.0899 2 83.5731 Cuts:3 51 17.33%
0 0 69.0899 2 83.5731 Cuts:2 53 17.33%
0 2 69.0899 2 83.5731 69.0899 53 17.33%
CPXPARAM_MIP_Cuts_CPXPARAM_MIP_Cuts_Gomory-CPXPARAM_MIP_Cuts_Disjunctive-CPXPARAM_MIP_Cuts_LiftProj 2
91
CPXPARAM_MIP_Cuts_CPXPARAM_MIP_Cuts_Gomory-CPXPARAM_MIP_Cuts_Disjunctive-CPXPARAM_MIP_Cuts_LiftProj 3
92
CPXPARAM_MIP_Cuts_CPXPARAM_MIP_Cuts_Gomory-CPXPARAM_MIP_Cuts_Disjunctive-CPXPARAM_MIP_Cuts_LiftProj 0
93
Node Left Objective IInf Best_Integer Best_Bound ItCnt Gap
0 0 7.6579 2 7.6579 41
0+ 0 nan nan 8.0780 7.6579 nan 5.20%
0 0 7.6579 2 8.0780 Disjcuts:1 45 5.20%
0+ 0 nan nan 8.0780 7.6579 nan 5.20%
0 0 7.6579 2 8.0780 7.6579 89 5.20%
0 0 7.6579 2 8.0780 Fract:1 93 5.20%
0 0 7.6579 2 8.0780 Fract:2 95 5.20%
0 1 8.0778 3 8.0780 8.0779 95 0.00%
CPXPARAM_MIP_Cuts_CPXPARAM_MIP_Cuts_Gomory-CPXPARAM_MIP_Cuts_Disjunctive-CPXPARAM_MIP_Cuts_LiftProj 0
94
CPXPARAM_MIP_Cuts_CPXPARAM_MIP_Cuts_Gomory-CPXPARAM_MIP_Cuts_Disjunctive-CPXPARAM_MIP_Cuts_LiftProj 3
95
CPXPARAM_MIP_Cuts_CPXPARAM_MIP_Cuts_Gomory-CPXPARAM_MIP_Cuts_Disjunctive-CPXPARAM_MIP_Cuts_LiftProj 1
96
Node Left Objective IInf Best_Integer Best_Bound ItCnt Gap
0 0 46.2013 6 46.2013 60
0 0 46.2394 7 Cuts:6 71
0 0 46.4378 7 Cuts:6 83
0 0 47.0252 7 Cuts:12 91
0 0 47.2399 7 Cuts:12 106
0+ 0 nan nan 49.3481 47.2399 nan 4.27%
0+ 0 nan nan 49.3481 47.2399 nan 4.27%
0 0 47.2399 7 49.3481 47.2399 175 4.27%
0 0 47.4143 5 49.3481 Cuts:6 185 3.92%
0 0 47.6524 6 49.3481 Cuts:4 194 3.44%
0 0 47.7205 5 49.3481 LiftProj:2 199 3.30%
0+ 0 nan nan 49.3481 47.7205 nan 3.30%
0 0 47.7348 5 49.3481 LiftProj:2 201 3.27%
0 0 47.9234 6 49.3481 LiftProj:2 208 2.89%
0 0 48.0349 6 49.3481 Cuts:5 212 2.66%
0 0 48.0635 6 49.3481 Cuts:4 216 2.60%
0 0 48.0868 6 49.3481 LiftProj:3 219 2.56%
0 0 48.1675 6 49.3481 LiftProj:3 232 2.39%
0 0 48.2449 5 49.3481 LiftProj:1 238 2.24%
0 0 48.3002 5 49.3481 Cuts:4 240 2.12%
0+ 0 nan nan 49.3481 48.3002 nan 2.12%
0 0 48.5240 5 49.3481 LiftProj:4 249 1.67%
0 0 48.5651 5 49.3481 LiftProj:3 253 1.59%
0 0 48.6000 5 49.3481 LiftProj:4 257 1.52%
0 0 48.6109 5 49.3481 LiftProj:4 261 1.49%
0 0 48.6596 5 49.3481 LiftProj:4 272 1.40%
0 0 48.9229 5 49.3481 LiftProj:2 284 0.86%
0 0 49.1641 3 49.3481 LiftProj:1 298 0.37%
0 0 cutoff 49.3481 306 0.00% 0 0
CPXPARAM_MIP_Cuts_CPXPARAM_MIP_Cuts_Gomory-CPXPARAM_MIP_Cuts_Disjunctive-CPXPARAM_MIP_Cuts_LiftProj 2
97
CPXPARAM_MIP_Cuts_CPXPARAM_MIP_Cuts_Gomory-CPXPARAM_MIP_Cuts_Disjunctive-CPXPARAM_MIP_Cuts_LiftProj 0
98
CPXPARAM_MIP_Cuts_CPXPARAM_MIP_Cuts_Gomory-CPXPARAM_MIP_Cuts_Disjunctive-CPXPARAM_MIP_Cuts_LiftProj 0
99
Node Left Objective IInf Best_Integer Best_Bound ItCnt Gap
0 0 0.8948 6 0.8948 57
0 0 1.6642 8 Cuts:9 70
0 0 7.3876 6 Cuts:5 89
0+ 0 nan nan 11.6907 7.3876 nan 36.81%
0 0 cutoff 11.6907 108 0.00% 0 0
CPXPARAM_MIP_Cuts_CPXPARAM_MIP_Cuts_Gomory-CPXPARAM_MIP_Cuts_Disjunctive-CPXPARAM_MIP_Cuts_LiftProj 0
100
CPXPARAM_MIP_Cuts_CPXPARAM_MIP_Cuts_Gomory-CPXPARAM_MIP_Cuts_Disjunctive-CPXPARAM_MIP_Cuts_LiftProj 1
101
CPXPARAM_MIP_Cuts_CPXPARAM_MIP_Cuts_Gomory-CPXPARAM_MIP_Cuts_Disjunctive-CPXPARAM_MIP_Cuts_LiftProj 3
102
Node Left Objective IInf Best_Integer Best_Bound ItCnt Gap
0 0 41.8656 2 41.8656 44
0+ 0 nan nan 41.9255 41.8656 nan 0.14%
0+ 0 nan nan 41.9255 41.8656 nan 0.14%
0 0 41.8656 2 41.9255 41.8656 90 0.14%
0 0 41.8656 2 41.9255 Cuts:2 94 0.14%
0 0 cutoff 41.9255 41.8656 96 0.14% 0
CPXPARAM_MIP_Cuts_CPXPARAM_MIP_Cuts_Gomory-CPXPARAM_MIP_Cuts_Disjunctive-CPXPARAM_MIP_Cuts_LiftProj 0
103
CPXPARAM_MIP_Cuts_CPXPARAM_MIP_Cuts_Gomory-CPXPARAM_MIP_Cuts_Disjunctive-CPXPARAM_MIP_Cuts_LiftProj 1
104
CPXPARAM_MIP_Cuts_CPXPARAM_MIP_Cuts_Gomory-CPXPARAM_MIP_Cuts_Disjunctive-CPXPARAM_MIP_Cuts_LiftProj 1
105
Node Left Objective IInf Best_Integer Best_Bound ItCnt Gap
0 0 10.6421 2 10.6421 45
0+ 0 nan nan 17.9751 10.6421 nan 40.80%
0 2 10.6421 2 17.9751 10.6421 52 40.80%
CPXPARAM_MIP_Cuts_CPXPARAM_MIP_Cuts_Gomory-CPXPARAM_MIP_Cuts_Disjunctive-CPXPARAM_MIP_Cuts_LiftProj 0
106
CPXPARAM_MIP_Cuts_CPXPARAM_MIP_Cuts_Gomory-CPXPARAM_MIP_Cuts_Disjunctive-CPXPARAM_MIP_Cuts_LiftProj 0
107
CPXPARAM_MIP_Cuts_CPXPARAM_MIP_Cuts_Gomory-CPXPARAM_MIP_Cuts_Disjunctive-CPXPARAM_MIP_Cuts_LiftProj 0
108
Node Left Objective IInf Best_Integer Best_Bound ItCnt Gap
0 0 48.4886 6 48.4886 59
0 0 48.5199 7 Cuts:3 68
0 0 49.2284 5 Cuts:7 76
0+ 0 nan nan 52.9256 49.2284 nan 6.99%
0+ 0 nan nan 52.9256 49.2284 nan 6.99%
0 0 49.2284 5 52.9256 49.2284 144 6.99%
0 0 49.5273 7 52.9256 Cuts:5 152 6.42%
0 0 49.6748 7 52.9256 Cuts:6 161 6.14%
0 0 49.8871 7 52.9256 Fract:5 165 5.74%
0 0 50.2885 7 52.9256 LiftProj:2 168 4.98%
0 0 50.3413 7 52.9256 LiftProj:2 173 4.88%
0 0 50.8896 7 52.9256 LiftProj:2 181 3.85%
0 0 51.1123 7 52.9256 LiftProj:2 189 3.43%
0 0 52.0280 5 52.9256 LiftProj:1 207 1.70%
0+ 0 nan nan 52.9256 52.0280 nan 1.70%
0 0 52.6146 4 52.9256 Cuts:3 225 0.59%
0+ 0 nan nan 52.9256 52.6146 nan 0.59%
0 0 cutoff 52.9256 238 0.00% 0 0
CPXPARAM_MIP_Cuts_CPXPARAM_MIP_Cuts_Gomory-CPXPARAM_MIP_Cuts_Disjunctive-CPXPARAM_MIP_Cuts_LiftProj 2
109
CPXPARAM_MIP_Cuts_CPXPARAM_MIP_Cuts_Gomory-CPXPARAM_MIP_Cuts_Disjunctive-CPXPARAM_MIP_Cuts_LiftProj 2
110
CPXPARAM_MIP_Cuts_CPXPARAM_MIP_Cuts_Gomory-CPXPARAM_MIP_Cuts_Disjunctive-CPXPARAM_MIP_Cuts_LiftProj 0
111
Node Left Objective IInf Best_Integer Best_Bound ItCnt Gap
0 0 -6.1266 6 -6.1266 62
0 0 -5.2987 9 Cuts:13 76
0 0 -3.7377 8 Cuts:12 91
0 0 -2.6032 8 Cuts:14 104
0 0 -1.7716 7 Cuts:19 123
0 0 -0.9429 8 Cuts:7 136
0 0 -0.8613 8 Cuts:5 142
0 0 -0.8550 8 LiftProj:4 146
0 0 -0.8548 8 LiftProj:3 147
0 0 -0.7910 8 LiftProj:3 155
0 0 -0.7161 8 LiftProj:3 162
0 0 -0.6517 8 LiftProj:4 168
0 0 0.2485 8 Cuts:6 178
0 0 0.3717 8 LiftProj:5 185
0 0 0.5474 8 LiftProj:3 191
0 0 0.6190 8 LiftProj:3 196
0 0 0.8387 7 LiftProj:4 202
0 0 0.8707 8 LiftProj:3 206
0 0 0.9171 8 LiftProj:4 212
0 0 0.9555 8 LiftProj:3 221
0 0 0.9696 8 LiftProj:3 226
0 0 0.9749 8 LiftProj:3 231
0 0 0.9837 8 LiftProj:2 234
0 0 0.9878 8 LiftProj:3 236
0 0 0.9928 8 LiftProj:3 239
0 0 1.0053 8 LiftProj:2 243
0 0 1.0114 8 LiftProj:2 249
0 0 1.0125 8 LiftProj:2 251
0 0 1.0142 8 LiftProj:3 253
0 0 1.0159 8 LiftProj:2 256
0 0 1.0161 8 LiftProj:1 257
0+ 0 nan nan 10.0443 1.0161 nan 89.88%
0 2 1.1802 7 10.0443 1.2364 257 87.69%
CPXPARAM_MIP_Cuts_CPXPARAM_MIP_Cuts_Gomory-CPXPARAM_MIP_Cuts_Disjunctive-CPXPARAM_MIP_Cuts_LiftProj 17
112
CPXPARAM_MIP_Cuts_CPXPARAM_MIP_Cuts_Gomory-CPXPARAM_MIP_Cuts_Disjunctive-CPXPARAM_MIP_Cuts_LiftProj 2
113
CPXPARAM_MIP_Cuts_CPXPARAM_MIP_Cuts_Gomory-CPXPARAM_MIP_Cuts_Disjunctive-CPXPARAM_MIP_Cuts_LiftProj 1
114
Node Left Objective IInf Best_Integer Best_Bound ItCnt Gap
0 0 47.4773 2 47.4773 45
0+ 0 nan nan 47.5785 47.4773 nan 0.21%
0+ 0 nan nan 47.5785 47.4773 nan 0.21%
0 0 47.4773 2 47.5785 47.4773 93 0.21%
0 0 47.4773 2 47.5785 Cuts:2 97 0.21%
0 0 cutoff 47.5785 101 0.00% 0 0
CPXPARAM_MIP_Cuts_CPXPARAM_MIP_Cuts_Gomory-CPXPARAM_MIP_Cuts_Disjunctive-CPXPARAM_MIP_Cuts_LiftProj 0
115
CPXPARAM_MIP_Cuts_CPXPARAM_MIP_Cuts_Gomory-CPXPARAM_MIP_Cuts_Disjunctive-CPXPARAM_MIP_Cuts_LiftProj 1
116
CPXPARAM_MIP_Cuts_CPXPARAM_MIP_Cuts_Gomory-CPXPARAM_MIP_Cuts_Disjunctive-CPXPARAM_MIP_Cuts_LiftProj 1
117
Node Left Objective IInf Best_Integer Best_Bound ItCnt Gap
0 0 7.0905 2 7.0905 43
0+ 0 nan nan 7.1260 7.0905 nan 0.50%
0+ 0 nan nan 7.1260 7.0905 nan 0.50%
0 0 7.0905 2 7.1260 7.0905 90 0.50%
0 0 7.0905 2 7.1260 Disjcuts:1 94 0.50%
0 0 cutoff 7.1260 7.0905 97 0.50% 0
CPXPARAM_MIP_Cuts_CPXPARAM_MIP_Cuts_Gomory-CPXPARAM_MIP_Cuts_Disjunctive-CPXPARAM_MIP_Cuts_LiftProj 0
118
CPXPARAM_MIP_Cuts_CPXPARAM_MIP_Cuts_Gomory-CPXPARAM_MIP_Cuts_Disjunctive-CPXPARAM_MIP_Cuts_LiftProj 0
119
CPXPARAM_MIP_Cuts_CPXPARAM_MIP_Cuts_Gomory-CPXPARAM_MIP_Cuts_Disjunctive-CPXPARAM_MIP_Cuts_LiftProj 1
